Academic license - for non-commercial use only
Gurobi Optimizer version 9.0.3 build v9.0.3rc0 (mac64)
Optimize a model with 156424 rows, 151200 columns and 877950 nonzeros
Model fingerprint: 0x1d82f465
Variable types: 0 continuous, 151200 integer (151200 binary)
Coefficient statistics:
  Matrix range     [1e+00, 1e+00]
  Objective range  [1e+01, 3e+04]
  Bounds range     [1e+00, 1e+00]
  RHS range        [1e+00, 2e+02]
Presolve added 0 rows and 2450 columns
Presolve removed 50 rows and 0 columns
Presolve time: 2.65s
Presolved: 156374 rows, 153650 columns, 635350 nonzeros
Variable types: 0 continuous, 153650 integer (153650 binary)
Found heuristic solution: objective 292362.00000

Concurrent LP optimizer: dual simplex and barrier
Showing barrier log only...

Root barrier log...

Ordering time: 0.42s

Barrier statistics:
 Dense cols : 600
 AA' NZ     : 4.894e+05
 Factor NZ  : 2.609e+06 (roughly 150 MBytes of memory)
 Factor Ops : 1.141e+09 (less than 1 second per iteration)
 Threads    : 3

                  Objective                Residual
Iter       Primal          Dual         Primal    Dual     Compl     Time
   0   1.17579922e+08 -1.79388816e+08  3.25e+02 3.15e+01  8.99e+03     5s
   1   8.51166866e+05 -1.72503856e+08  1.59e+00 4.68e+02  4.14e+02     5s
   2   3.97303106e+05 -6.94688872e+07  2.72e-01 1.80e+02  1.55e+02     5s
   3   3.57642621e+05 -2.84682426e+07  1.51e-01 7.08e+01  6.35e+01     5s
   4   3.07616704e+05 -2.40802439e+05  7.73e-03 8.36e+00  1.19e+00     6s
   5   2.94083015e+05 -2.66496312e+04  5.71e-03 4.45e+00  6.95e-01     6s
   6   2.81715724e+05  8.96430490e+04  4.46e-03 2.21e+00  4.15e-01     6s
   7   2.68423043e+05  1.53707107e+05  3.36e-03 1.00e+00  2.48e-01     6s
   8   2.61743393e+05  1.80060030e+05  2.87e-03 7.06e-01  1.76e-01     7s
   9   2.54262163e+05  1.95221145e+05  2.38e-03 4.28e-01  1.27e-01     7s
  10   2.45848995e+05  2.02470851e+05  1.85e-03 2.59e-01  9.33e-02     7s
  11   2.40235611e+05  2.07854976e+05  1.51e-03 1.41e-01  6.96e-02     7s
  12   2.36439404e+05  2.10100883e+05  1.26e-03 1.04e-01  5.66e-02     8s
  13   2.33790293e+05  2.12001491e+05  1.11e-03 7.23e-02  4.68e-02     8s
  14   2.30133248e+05  2.13226843e+05  8.90e-04 5.20e-02  3.63e-02     8s
  15   2.25593781e+05  2.14258851e+05  6.23e-04 3.61e-02  2.43e-02     8s
  16   2.23690589e+05  2.14865504e+05  5.04e-04 2.73e-02  1.89e-02     9s
  17   2.21948731e+05  2.15368846e+05  3.79e-04 1.98e-02  1.41e-02     9s
  18   2.20994925e+05  2.15780160e+05  3.14e-04 1.40e-02  1.12e-02     9s
  19   2.20140420e+05  2.16048387e+05  2.54e-04 1.03e-02  8.76e-03     9s
  20   2.19447568e+05  2.16187133e+05  2.01e-04 8.39e-03  6.98e-03     9s
  21   2.19063698e+05  2.16371823e+05  1.71e-04 5.88e-03  5.76e-03    10s
  22   2.18457242e+05  2.16479515e+05  1.28e-04 4.58e-03  4.23e-03    10s
  23   2.18128162e+05  2.16569381e+05  1.02e-04 3.41e-03  3.33e-03    10s
  24   2.17896289e+05  2.16631925e+05  8.51e-05 2.65e-03  2.70e-03    10s
  25   2.17605070e+05  2.16669660e+05  6.36e-05 2.16e-03  2.00e-03    11s
  26   2.17428929e+05  2.16719910e+05  4.91e-05 1.48e-03  1.52e-03    11s
  27   2.17300271e+05  2.16749246e+05  3.79e-05 1.13e-03  1.18e-03    11s
  28   2.17217082e+05  2.16770064e+05  3.16e-05 9.39e-04  9.55e-04    11s
  29   2.17105936e+05  2.16785405e+05  2.28e-05 7.60e-04  6.85e-04    11s
  30   2.17057904e+05  2.16808919e+05  1.85e-05 5.07e-04  5.31e-04    12s
  31   2.17014776e+05  2.16817487e+05  1.48e-05 4.07e-04  4.21e-04    12s
  32   2.16963786e+05  2.16828520e+05  1.03e-05 2.95e-04  2.89e-04    12s
  33   2.16949170e+05  2.16837495e+05  8.98e-06 1.90e-04  2.38e-04    13s
  34   2.16926204e+05  2.16842264e+05  6.81e-06 1.28e-04  1.79e-04    13s
  35   2.16908349e+05  2.16845925e+05  5.11e-06 8.67e-05  1.33e-04    13s
  36   2.16896233e+05  2.16847323e+05  3.95e-06 6.89e-05  1.04e-04    14s
  37   2.16886872e+05  2.16849131e+05  3.09e-06 4.81e-05  8.04e-05    14s
  38   2.16877366e+05  2.16850250e+05  2.22e-06 3.57e-05  5.78e-05    14s
  39   2.16871560e+05  2.16851445e+05  1.67e-06 2.28e-05  4.28e-05    14s
  40   2.16866350e+05  2.16851987e+05  1.18e-06 1.70e-05  3.06e-05    15s
  41   2.16862624e+05  2.16853207e+05  8.25e-07 6.90e-06  2.00e-05    15s
  42   2.16860522e+05  2.16853394e+05  6.27e-07 4.86e-06  1.52e-05    15s
  43   2.16859149e+05  2.16853442e+05  4.96e-07 4.21e-06  1.21e-05    15s
  44   2.16858153e+05  2.16853571e+05  4.00e-07 2.95e-06  9.75e-06    15s
  45   2.16857680e+05  2.16853631e+05  3.55e-07 2.36e-06  8.61e-06    15s
  46   2.16856376e+05  2.16853667e+05  2.39e-07 1.89e-06  5.76e-06    16s
  47   2.16855310e+05  2.16853700e+05  1.36e-07 1.59e-06  3.43e-06    16s
  48   2.16855021e+05  2.16853823e+05  1.14e-07 1.42e-06  2.54e-06    16s
  49   2.16854118e+05  2.16853854e+05  2.45e-08 2.09e-06  5.62e-07    16s
  50   2.16854064e+05  2.16853865e+05  1.91e-08 2.44e-07  4.23e-07    17s
  51   2.16854042e+05  2.16853865e+05  1.68e-08 2.38e-07  3.74e-07    17s
  52   2.16853939e+05  2.16853865e+05  6.30e-09 1.91e-07  1.57e-07    17s
  53   2.16853873e+05  2.16853870e+05  2.68e-10 1.49e-07  5.10e-09    17s
  54   2.16853873e+05  2.16853870e+05  6.20e-08 1.49e-07  5.09e-09    17s
  55   2.16853873e+05  2.16853870e+05  6.20e-08 1.49e-07  5.09e-09    17s
  56   2.16853873e+05  2.16853870e+05  6.20e-08 1.44e-07  5.09e-09    18s

Barrier solved model in 56 iterations and 17.77 seconds
Optimal objective 2.16853873e+05


Root crossover log...

   58458 DPushes remaining with DInf 0.0000000e+00                18s
       0 DPushes remaining with DInf 0.0000000e+00                19s

     986 PPushes remaining with PInf 0.0000000e+00                19s
       0 PPushes remaining with PInf 0.0000000e+00                19s

  Push phase complete: Pinf 0.0000000e+00, Dinf 8.4505425e-10     19s


Root simplex log...

Iteration    Objective       Primal Inf.    Dual Inf.      Time
   10385    2.1685387e+05   0.000000e+00   0.000000e+00     19s

Solved with barrier

Root relaxation: objective 2.168539e+05, 10385 iterations, 15.03 seconds

    Nodes    |    Current Node    |     Objective Bounds      |     Work
 Expl Unexpl |  Obj  Depth IntInf | Incumbent    BestBd   Gap | It/Node Time

     0     0 216853.871    0 14605 292362.000 216853.871  25.8%     -   20s
H    0     0                    229143.00000 216853.871  5.36%     -   21s
     0     0 216853.871    0 14605 229143.000 216853.871  5.36%     -   47s
H    0     2                    229114.00000 216853.871  5.35%     -  104s
     0     2 216853.871    0 14605 229114.000 216853.871  5.35%     -  104s
     1     4 216995.937    1 14969 229114.000 216853.876  5.35% 22898  205s
     3     6 217054.267    2 15016 229114.000 216996.007  5.29% 23724  300s

Explored 5 nodes (92855 simplex iterations) in 300.11 seconds
Thread count was 8 (of 8 available processors)

Solution count 3: 229114 229143 292362 

Time limit reached
Best objective 2.291140000000e+05, best bound 2.169960070249e+05, gap 5.2891%

User-callback calls 110010, time in user-callback 0.88 sec
Solution written to /Users/mdeboute/Desktop/Etudes/Master/M2/S9/GOPP/Projet/multi-period-flp/solution/instSingle_I50_J250_T12_1_result.txt
